c AI planning file sortnetsort5.AE.stepl.006.qcnf (Jussi.Rintanen@NICTA.com.au)
p cnf 1181 1996 
a 43 44 45 46 47 48 49 50 51 52 53 54 55 56 57 58 59 60 61 62 63 64 65 66 67 68 69 70 71 72 73 74 75 76 77 78 79 80 81 82 83 84 85 86 87 88 89 90 91 92 93 94 95 96 97 98 99 100 101 102 103 104 105 106 107 108 109 110 111 112 113 114 115 116 117 118 119 120 121 122 123 124 125 126 962 963 964 965 966 967 968 969 970 971 972 973 974 975 976 977 978 979 980 981 982 983 984 985 1006 1007 1008 1009 1010 1011 1012 1013 1014 1015 1016 1017 1018 1019 1020 1021 1022 1023 1024 1025 1026 1027 1028 1029 1050 1051 1052 1053 1054 1055 1056 1057 1058 1059 1060 1061 1062 1063 1064 1065 1066 1067 1068 1069 1070 1071 1072 1073 1094 1095 1096 1097 1098 1099 1100 1101 1102 1103 1104 1105 1106 1107 1108 1109 1110 1111 1112 1113 1114 1115 1116 1117 1138 1139 1140 1141 1142 1143 1144 1145 1146 1147 1148 1149 1150 1151 1152 1153 1154 1155 1156 1157 1158 1159 1160 1161 0
e 1 2 3 4 5 6 7 8 9 10 11 12 13 14 15 16 17 18 19 20 21 22 23 24 25 26 27 28 29 30 31 32 33 34 35 36 37 38 39 40 41 42 127 128 129 130 131 132 133 134 135 136 137 138 139 140 141 142 143 144 145 146 147 148 149 150 151 152 153 154 155 156 157 158 159 160 161 162 163 164 165 166 167 168 169 170 171 172 173 174 175 176 177 178 179 180 181 182 183 184 185 186 187 188 189 190 191 192 193 194 195 196 197 198 199 200 201 202 203 204 205 206 207 208 209 210 211 212 213 214 215 216 217 218 219 220 221 222 223 224 225 226 227 228 229 230 231 232 233 234 235 236 237 238 239 240 241 242 243 244 245 246 247 248 249 250 251 252 253 254 255 256 257 258 259 260 261 262 263 264 265 266 267 268 269 270 271 272 273 274 275 276 277 278 279 280 281 282 283 284 285 286 287 288 289 290 291 292 293 294 295 296 297 298 299 300 301 302 303 304 305 306 307 308 309 310 311 312 313 314 315 316 317 318 319 320 321 322 323 324 325 326 327 328 329 330 331 332 333 334 335 336 337 338 339 340 341 342 343 344 345 346 347 348 349 350 351 352 353 354 355 356 357 358 359 360 361 362 363 364 365 366 367 368 369 370 371 372 373 374 375 376 377 378 379 380 381 382 383 384 385 386 387 388 389 390 391 392 393 394 395 396 397 398 399 400 401 402 403 404 405 406 407 408 409 410 411 412 413 414 415 416 417 418 419 420 421 422 423 424 425 426 427 428 429 430 431 432 433 434 435 436 437 438 439 440 441 442 443 444 445 446 447 448 449 450 451 452 453 454 455 456 457 458 459 460 461 462 463 464 465 466 467 468 469 470 471 472 473 474 475 476 477 478 479 480 481 482 483 484 485 486 487 488 489 490 491 492 493 494 495 496 497 498 499 500 501 502 503 504 505 506 507 508 509 510 511 512 513 514 515 516 517 518 519 520 521 522 523 524 525 526 527 528 529 530 531 532 533 534 535 536 537 538 539 540 541 542 543 544 545 546 547 548 549 550 551 552 553 554 555 556 557 558 559 560 561 562 563 564 565 566 567 568 569 570 571 572 573 574 575 576 577 578 579 580 581 582 583 584 585 586 587 588 589 590 591 592 593 594 595 596 597 598 599 600 601 602 603 604 605 606 607 608 609 610 611 612 613 614 615 616 617 618 619 620 621 622 623 624 625 626 627 628 629 630 631 632 633 634 635 636 637 638 639 640 641 642 643 644 645 646 647 648 649 650 651 652 653 654 655 656 657 658 659 660 661 662 663 664 665 666 667 668 669 670 671 672 673 674 675 676 677 678 679 680 681 682 683 684 685 686 687 688 689 690 691 692 693 694 695 696 697 698 699 700 701 702 703 704 705 706 707 708 709 710 711 712 713 714 715 716 717 718 719 720 721 722 723 724 725 726 727 728 729 730 731 732 733 734 735 736 737 738 739 740 741 742 743 744 745 746 747 748 749 750 751 752 753 754 755 756 757 758 759 760 761 762 763 764 765 766 767 768 769 770 771 772 773 774 775 776 777 778 779 780 781 782 783 784 785 786 787 788 789 790 791 792 793 794 795 796 797 798 799 800 801 802 803 804 805 806 807 808 809 810 811 812 813 814 815 816 817 818 819 820 821 822 823 824 825 826 827 828 829 830 831 832 833 834 835 836 837 838 839 840 841 842 843 844 845 846 847 848 849 850 851 852 853 854 855 856 857 858 859 860 861 862 863 864 865 866 867 868 869 870 871 872 873 874 875 876 877 878 879 880 881 882 883 884 885 886 887 888 889 890 891 892 893 894 895 896 897 898 899 900 901 902 903 904 905 906 907 908 909 910 911 912 913 914 915 916 917 918 919 920 921 922 923 924 925 926 927 928 929 930 931 932 933 934 935 936 937 938 939 940 941 942 943 944 945 946 947 948 949 950 951 952 953 954 955 956 957 958 959 960 961 986 987 988 989 990 991 992 993 994 995 996 997 998 999 1000 1001 1002 1003 1004 1005 1030 1031 1032 1033 1034 1035 1036 1037 1038 1039 1040 1041 1042 1043 1044 1045 1046 1047 1048 1049 1074 1075 1076 1077 1078 1079 1080 1081 1082 1083 1084 1085 1086 1087 1088 1089 1090 1091 1092 1093 1118 1119 1120 1121 1122 1123 1124 1125 1126 1127 1128 1129 1130 1131 1132 1133 1134 1135 1136 1137 1162 1163 1164 1165 1166 1167 1168 1169 1170 1171 1172 1173 1174 1175 1176 1177 1178 1179 1180 1181 0
457 458 459 460 461 462 463 464 465 466 467 468 469 470 471 472 473 474 475 476 477 478 479 480 481 482 483 484 485 486 487 488 489 490 491 492 493 494 495 496 497 498 499 500 501 502 503 504 505 506 507 508 509 510 511 512 513 514 515 516 517 518 519 520 521 522 523 524 525 526 527 528 529 530 531 532 533 534 535 536 537 538 539 540 541 542 543 544 545 546 547 548 549 550 551 552 553 554 555 556 557 558 559 560 561 562 563 564 565 566 567 568 569 570 571 572 573 574 575 576 577 578 579 580 581 582 583 584 585 586 587 588 589 590 591 592 593 594 595 596 597 598 599 600 601 602 603 604 605 606 607 608 609 610 611 612 613 614 615 616 617 618 619 620 621 622 623 624 625 626 627 628 629 630 631 632 633 634 635 636 637 638 639 640 641 642 643 644 645 646 647 648 649 650 651 652 653 654 655 656 657 658 659 660 661 662 663 664 665 666 667 668 669 670 671 672 673 674 675 676 677 678 679 680 681 682 683 684 685 686 687 688 689 690 691 692 693 694 695 696 697 698 699 700 701 702 703 704 705 706 707 708 709 710 711 712 713 714 715 716 717 718 719 720 721 722 723 724 725 726 727 728 729 730 731 732 733 734 735 736 737 738 739 740 741 742 743 744 745 746 747 748 749 750 751 752 753 754 755 756 757 758 759 760 761 762 763 764 765 766 767 768 769 770 771 772 773 774 775 776 777 778 779 780 781 782 783 784 785 786 787 788 789 790 791 792 793 794 795 796 797 798 799 800 801 802 803 804 805 806 807 808 809 810 811 812 813 814 815 816 817 818 819 820 821 822 823 824 825 826 827 828 829 830 831 832 833 834 835 836 837 838 839 840 841 842 843 844 845 846 847 848 849 850 851 852 853 854 855 856 857 858 859 860 861 862 863 864 865 866 867 868 869 870 871 872 873 874 875 876 877 878 879 880 881 882 883 884 885 886 887 888 889 890 891 892 893 894 895 896 897 898 899 900 901 902 903 904 905 906 907 908 909 910 911 912 913 914 915 916 917 918 919 920 921 922 923 924 925 926 927 928 929 930 931 932 933 934 935 936 937 938 939 940 941 942 943 944 945 946 947 948 949 950 951 952 953 954 955 956 957 958 959 960 961 0
-457 446 447 448 449 450 451 452 453 454 455 456 0
-458 113 0
-458 -114 0
-459 46 0
-459 -114 0
-460 113 0
-460 46 0
-461 112 0
-461 -113 0
-462 45 0
-462 -113 0
-463 112 0
-463 45 0
-464 43 0
-464 -112 0
-465 44 0
-465 -112 0
-466 43 0
-466 44 0
-467 110 0
-467 -111 0
-468 49 0
-468 -111 0
-469 110 0
-469 49 0
-470 47 0
-470 -110 0
-471 48 0
-471 -110 0
-472 47 0
-472 48 0
-473 43 0
-473 49 0
-474 43 0
-474 48 0
-475 43 0
-475 47 0
-476 50 0
-476 -109 0
-477 51 0
-477 -109 0
-478 50 0
-478 51 0
-479 108 0
-479 51 0
-480 108 0
-480 50 0
-481 44 0
-481 -108 0
-482 47 0
-482 -108 0
-483 44 0
-483 47 0
-484 107 0
-484 52 0
-485 106 0
-485 -107 0
-486 50 0
-486 -107 0
-487 106 0
-487 50 0
-488 45 0
-488 -106 0
-489 48 0
-489 -106 0
-490 45 0
-490 48 0
-491 104 0
-491 -105 0
-492 52 0
-492 -105 0
-493 104 0
-493 52 0
-494 103 0
-494 -104 0
-495 51 0
-495 -104 0
-496 103 0
-496 51 0
-497 46 0
-497 -103 0
-498 49 0
-498 -103 0
-499 46 0
-499 49 0
-500 125 0
-500 -126 0
-501 43 0
-501 -126 0
-502 125 0
-502 43 0
-503 124 0
-503 -125 0
-504 44 0
-504 -125 0
-505 124 0
-505 44 0
-506 46 0
-506 -124 0
-507 45 0
-507 -124 0
-508 46 0
-508 45 0
-509 123 0
-509 43 0
-510 122 0
-510 -123 0
-511 47 0
-511 -123 0
-512 122 0
-512 47 0
-513 49 0
-513 -122 0
-514 48 0
-514 -122 0
-515 49 0
-515 48 0
-516 121 0
-516 44 0
-517 121 0
-517 47 0
-518 51 0
-518 -121 0
-519 50 0
-519 -121 0
-520 51 0
-520 50 0
-521 47 0
-521 -120 0
-522 44 0
-522 -120 0
-523 47 0
-523 44 0
-524 52 0
-524 45 0
-525 52 0
-525 48 0
-526 52 0
-526 50 0
-527 118 0
-527 -119 0
-528 45 0
-528 -119 0
-529 118 0
-529 45 0
-530 50 0
-530 -118 0
-531 48 0
-531 -118 0
-532 50 0
-532 48 0
-533 116 0
-533 -117 0
-534 46 0
-534 -117 0
-535 116 0
-535 46 0
-536 115 0
-536 -116 0
-537 49 0
-537 -116 0
-538 115 0
-538 49 0
-539 52 0
-539 -115 0
-540 51 0
-540 -115 0
-541 52 0
-541 51 0
-542 972 0
-542 -973 0
-543 56 0
-543 -973 0
-544 972 0
-544 56 0
-545 971 0
-545 -972 0
-546 55 0
-546 -972 0
-547 971 0
-547 55 0
-548 53 0
-548 -971 0
-549 54 0
-549 -971 0
-550 53 0
-550 54 0
-551 969 0
-551 -970 0
-552 59 0
-552 -970 0
-553 969 0
-553 59 0
-554 57 0
-554 -969 0
-555 58 0
-555 -969 0
-556 57 0
-556 58 0
-557 53 0
-557 59 0
-558 53 0
-558 58 0
-559 53 0
-559 57 0
-560 60 0
-560 -968 0
-561 61 0
-561 -968 0
-562 60 0
-562 61 0
-563 967 0
-563 61 0
-564 967 0
-564 60 0
-565 54 0
-565 -967 0
-566 57 0
-566 -967 0
-567 54 0
-567 57 0
-568 966 0
-568 62 0
-569 965 0
-569 -966 0
-570 60 0
-570 -966 0
-571 965 0
-571 60 0
-572 55 0
-572 -965 0
-573 58 0
-573 -965 0
-574 55 0
-574 58 0
-575 963 0
-575 -964 0
-576 62 0
-576 -964 0
-577 963 0
-577 62 0
-578 962 0
-578 -963 0
-579 61 0
-579 -963 0
-580 962 0
-580 61 0
-581 56 0
-581 -962 0
-582 59 0
-582 -962 0
-583 56 0
-583 59 0
-584 984 0
-584 -985 0
-585 53 0
-585 -985 0
-586 984 0
-586 53 0
-587 983 0
-587 -984 0
-588 54 0
-588 -984 0
-589 983 0
-589 54 0
-590 56 0
-590 -983 0
-591 55 0
-591 -983 0
-592 56 0
-592 55 0
-593 982 0
-593 53 0
-594 981 0
-594 -982 0
-595 57 0
-595 -982 0
-596 981 0
-596 57 0
-597 59 0
-597 -981 0
-598 58 0
-598 -981 0
-599 59 0
-599 58 0
-600 980 0
-600 54 0
-601 980 0
-601 57 0
-602 61 0
-602 -980 0
-603 60 0
-603 -980 0
-604 61 0
-604 60 0
-605 57 0
-605 -979 0
-606 54 0
-606 -979 0
-607 57 0
-607 54 0
-608 62 0
-608 55 0
-609 62 0
-609 58 0
-610 62 0
-610 60 0
-611 977 0
-611 -978 0
-612 55 0
-612 -978 0
-613 977 0
-613 55 0
-614 60 0
-614 -977 0
-615 58 0
-615 -977 0
-616 60 0
-616 58 0
-617 975 0
-617 -976 0
-618 56 0
-618 -976 0
-619 975 0
-619 56 0
-620 974 0
-620 -975 0
-621 59 0
-621 -975 0
-622 974 0
-622 59 0
-623 62 0
-623 -974 0
-624 61 0
-624 -974 0
-625 62 0
-625 61 0
-626 1016 0
-626 -1017 0
-627 66 0
-627 -1017 0
-628 1016 0
-628 66 0
-629 1015 0
-629 -1016 0
-630 65 0
-630 -1016 0
-631 1015 0
-631 65 0
-632 63 0
-632 -1015 0
-633 64 0
-633 -1015 0
-634 63 0
-634 64 0
-635 1013 0
-635 -1014 0
-636 69 0
-636 -1014 0
-637 1013 0
-637 69 0
-638 67 0
-638 -1013 0
-639 68 0
-639 -1013 0
-640 67 0
-640 68 0
-641 63 0
-641 69 0
-642 63 0
-642 68 0
-643 63 0
-643 67 0
-644 70 0
-644 -1012 0
-645 71 0
-645 -1012 0
-646 70 0
-646 71 0
-647 1011 0
-647 71 0
-648 1011 0
-648 70 0
-649 64 0
-649 -1011 0
-650 67 0
-650 -1011 0
-651 64 0
-651 67 0
-652 1010 0
-652 72 0
-653 1009 0
-653 -1010 0
-654 70 0
-654 -1010 0
-655 1009 0
-655 70 0
-656 65 0
-656 -1009 0
-657 68 0
-657 -1009 0
-658 65 0
-658 68 0
-659 1007 0
-659 -1008 0
-660 72 0
-660 -1008 0
-661 1007 0
-661 72 0
-662 1006 0
-662 -1007 0
-663 71 0
-663 -1007 0
-664 1006 0
-664 71 0
-665 66 0
-665 -1006 0
-666 69 0
-666 -1006 0
-667 66 0
-667 69 0
-668 1028 0
-668 -1029 0
-669 63 0
-669 -1029 0
-670 1028 0
-670 63 0
-671 1027 0
-671 -1028 0
-672 64 0
-672 -1028 0
-673 1027 0
-673 64 0
-674 66 0
-674 -1027 0
-675 65 0
-675 -1027 0
-676 66 0
-676 65 0
-677 1026 0
-677 63 0
-678 1025 0
-678 -1026 0
-679 67 0
-679 -1026 0
-680 1025 0
-680 67 0
-681 69 0
-681 -1025 0
-682 68 0
-682 -1025 0
-683 69 0
-683 68 0
-684 1024 0
-684 64 0
-685 1024 0
-685 67 0
-686 71 0
-686 -1024 0
-687 70 0
-687 -1024 0
-688 71 0
-688 70 0
-689 67 0
-689 -1023 0
-690 64 0
-690 -1023 0
-691 67 0
-691 64 0
-692 72 0
-692 65 0
-693 72 0
-693 68 0
-694 72 0
-694 70 0
-695 1021 0
-695 -1022 0
-696 65 0
-696 -1022 0
-697 1021 0
-697 65 0
-698 70 0
-698 -1021 0
-699 68 0
-699 -1021 0
-700 70 0
-700 68 0
-701 1019 0
-701 -1020 0
-702 66 0
-702 -1020 0
-703 1019 0
-703 66 0
-704 1018 0
-704 -1019 0
-705 69 0
-705 -1019 0
-706 1018 0
-706 69 0
-707 72 0
-707 -1018 0
-708 71 0
-708 -1018 0
-709 72 0
-709 71 0
-710 1060 0
-710 -1061 0
-711 76 0
-711 -1061 0
-712 1060 0
-712 76 0
-713 1059 0
-713 -1060 0
-714 75 0
-714 -1060 0
-715 1059 0
-715 75 0
-716 73 0
-716 -1059 0
-717 74 0
-717 -1059 0
-718 73 0
-718 74 0
-719 1057 0
-719 -1058 0
-720 79 0
-720 -1058 0
-721 1057 0
-721 79 0
-722 77 0
-722 -1057 0
-723 78 0
-723 -1057 0
-724 77 0
-724 78 0
-725 73 0
-725 79 0
-726 73 0
-726 78 0
-727 73 0
-727 77 0
-728 80 0
-728 -1056 0
-729 81 0
-729 -1056 0
-730 80 0
-730 81 0
-731 1055 0
-731 81 0
-732 1055 0
-732 80 0
-733 74 0
-733 -1055 0
-734 77 0
-734 -1055 0
-735 74 0
-735 77 0
-736 1054 0
-736 82 0
-737 1053 0
-737 -1054 0
-738 80 0
-738 -1054 0
-739 1053 0
-739 80 0
-740 75 0
-740 -1053 0
-741 78 0
-741 -1053 0
-742 75 0
-742 78 0
-743 1051 0
-743 -1052 0
-744 82 0
-744 -1052 0
-745 1051 0
-745 82 0
-746 1050 0
-746 -1051 0
-747 81 0
-747 -1051 0
-748 1050 0
-748 81 0
-749 76 0
-749 -1050 0
-750 79 0
-750 -1050 0
-751 76 0
-751 79 0
-752 1072 0
-752 -1073 0
-753 73 0
-753 -1073 0
-754 1072 0
-754 73 0
-755 1071 0
-755 -1072 0
-756 74 0
-756 -1072 0
-757 1071 0
-757 74 0
-758 76 0
-758 -1071 0
-759 75 0
-759 -1071 0
-760 76 0
-760 75 0
-761 1070 0
-761 73 0
-762 1069 0
-762 -1070 0
-763 77 0
-763 -1070 0
-764 1069 0
-764 77 0
-765 79 0
-765 -1069 0
-766 78 0
-766 -1069 0
-767 79 0
-767 78 0
-768 1068 0
-768 74 0
-769 1068 0
-769 77 0
-770 81 0
-770 -1068 0
-771 80 0
-771 -1068 0
-772 81 0
-772 80 0
-773 77 0
-773 -1067 0
-774 74 0
-774 -1067 0
-775 77 0
-775 74 0
-776 82 0
-776 75 0
-777 82 0
-777 78 0
-778 82 0
-778 80 0
-779 1065 0
-779 -1066 0
-780 75 0
-780 -1066 0
-781 1065 0
-781 75 0
-782 80 0
-782 -1065 0
-783 78 0
-783 -1065 0
-784 80 0
-784 78 0
-785 1063 0
-785 -1064 0
-786 76 0
-786 -1064 0
-787 1063 0
-787 76 0
-788 1062 0
-788 -1063 0
-789 79 0
-789 -1063 0
-790 1062 0
-790 79 0
-791 82 0
-791 -1062 0
-792 81 0
-792 -1062 0
-793 82 0
-793 81 0
-794 1104 0
-794 -1105 0
-795 86 0
-795 -1105 0
-796 1104 0
-796 86 0
-797 1103 0
-797 -1104 0
-798 85 0
-798 -1104 0
-799 1103 0
-799 85 0
-800 83 0
-800 -1103 0
-801 84 0
-801 -1103 0
-802 83 0
-802 84 0
-803 1101 0
-803 -1102 0
-804 89 0
-804 -1102 0
-805 1101 0
-805 89 0
-806 87 0
-806 -1101 0
-807 88 0
-807 -1101 0
-808 87 0
-808 88 0
-809 83 0
-809 89 0
-810 83 0
-810 88 0
-811 83 0
-811 87 0
-812 90 0
-812 -1100 0
-813 91 0
-813 -1100 0
-814 90 0
-814 91 0
-815 1099 0
-815 91 0
-816 1099 0
-816 90 0
-817 84 0
-817 -1099 0
-818 87 0
-818 -1099 0
-819 84 0
-819 87 0
-820 1098 0
-820 92 0
-821 1097 0
-821 -1098 0
-822 90 0
-822 -1098 0
-823 1097 0
-823 90 0
-824 85 0
-824 -1097 0
-825 88 0
-825 -1097 0
-826 85 0
-826 88 0
-827 1095 0
-827 -1096 0
-828 92 0
-828 -1096 0
-829 1095 0
-829 92 0
-830 1094 0
-830 -1095 0
-831 91 0
-831 -1095 0
-832 1094 0
-832 91 0
-833 86 0
-833 -1094 0
-834 89 0
-834 -1094 0
-835 86 0
-835 89 0
-836 1116 0
-836 -1117 0
-837 83 0
-837 -1117 0
-838 1116 0
-838 83 0
-839 1115 0
-839 -1116 0
-840 84 0
-840 -1116 0
-841 1115 0
-841 84 0
-842 86 0
-842 -1115 0
-843 85 0
-843 -1115 0
-844 86 0
-844 85 0
-845 1114 0
-845 83 0
-846 1113 0
-846 -1114 0
-847 87 0
-847 -1114 0
-848 1113 0
-848 87 0
-849 89 0
-849 -1113 0
-850 88 0
-850 -1113 0
-851 89 0
-851 88 0
-852 1112 0
-852 84 0
-853 1112 0
-853 87 0
-854 91 0
-854 -1112 0
-855 90 0
-855 -1112 0
-856 91 0
-856 90 0
-857 87 0
-857 -1111 0
-858 84 0
-858 -1111 0
-859 87 0
-859 84 0
-860 92 0
-860 85 0
-861 92 0
-861 88 0
-862 92 0
-862 90 0
-863 1109 0
-863 -1110 0
-864 85 0
-864 -1110 0
-865 1109 0
-865 85 0
-866 90 0
-866 -1109 0
-867 88 0
-867 -1109 0
-868 90 0
-868 88 0
-869 1107 0
-869 -1108 0
-870 86 0
-870 -1108 0
-871 1107 0
-871 86 0
-872 1106 0
-872 -1107 0
-873 89 0
-873 -1107 0
-874 1106 0
-874 89 0
-875 92 0
-875 -1106 0
-876 91 0
-876 -1106 0
-877 92 0
-877 91 0
-878 1148 0
-878 -1149 0
-879 96 0
-879 -1149 0
-880 1148 0
-880 96 0
-881 1147 0
-881 -1148 0
-882 95 0
-882 -1148 0
-883 1147 0
-883 95 0
-884 93 0
-884 -1147 0
-885 94 0
-885 -1147 0
-886 93 0
-886 94 0
-887 1145 0
-887 -1146 0
-888 99 0
-888 -1146 0
-889 1145 0
-889 99 0
-890 97 0
-890 -1145 0
-891 98 0
-891 -1145 0
-892 97 0
-892 98 0
-893 93 0
-893 99 0
-894 93 0
-894 98 0
-895 93 0
-895 97 0
-896 100 0
-896 -1144 0
-897 101 0
-897 -1144 0
-898 100 0
-898 101 0
-899 1143 0
-899 101 0
-900 1143 0
-900 100 0
-901 94 0
-901 -1143 0
-902 97 0
-902 -1143 0
-903 94 0
-903 97 0
-904 1142 0
-904 102 0
-905 1141 0
-905 -1142 0
-906 100 0
-906 -1142 0
-907 1141 0
-907 100 0
-908 95 0
-908 -1141 0
-909 98 0
-909 -1141 0
-910 95 0
-910 98 0
-911 1139 0
-911 -1140 0
-912 102 0
-912 -1140 0
-913 1139 0
-913 102 0
-914 1138 0
-914 -1139 0
-915 101 0
-915 -1139 0
-916 1138 0
-916 101 0
-917 96 0
-917 -1138 0
-918 99 0
-918 -1138 0
-919 96 0
-919 99 0
-920 1160 0
-920 -1161 0
-921 93 0
-921 -1161 0
-922 1160 0
-922 93 0
-923 1159 0
-923 -1160 0
-924 94 0
-924 -1160 0
-925 1159 0
-925 94 0
-926 96 0
-926 -1159 0
-927 95 0
-927 -1159 0
-928 96 0
-928 95 0
-929 1158 0
-929 93 0
-930 1157 0
-930 -1158 0
-931 97 0
-931 -1158 0
-932 1157 0
-932 97 0
-933 99 0
-933 -1157 0
-934 98 0
-934 -1157 0
-935 99 0
-935 98 0
-936 1156 0
-936 94 0
-937 1156 0
-937 97 0
-938 101 0
-938 -1156 0
-939 100 0
-939 -1156 0
-940 101 0
-940 100 0
-941 97 0
-941 -1155 0
-942 94 0
-942 -1155 0
-943 97 0
-943 94 0
-944 102 0
-944 95 0
-945 102 0
-945 98 0
-946 102 0
-946 100 0
-947 1153 0
-947 -1154 0
-948 95 0
-948 -1154 0
-949 1153 0
-949 95 0
-950 100 0
-950 -1153 0
-951 98 0
-951 -1153 0
-952 100 0
-952 98 0
-953 1151 0
-953 -1152 0
-954 96 0
-954 -1152 0
-955 1151 0
-955 96 0
-956 1150 0
-956 -1151 0
-957 99 0
-957 -1151 0
-958 1150 0
-958 99 0
-959 102 0
-959 -1150 0
-960 101 0
-960 -1150 0
-961 102 0
-961 101 0
-446 1 -7 0
-446 -1 7 130 129 128 127 0
-446 -130 445 0
-446 -43 -1 2 130 0
-446 -129 444 0
-446 -44 -1 3 129 0
-446 -128 443 0
-446 -45 -1 4 128 0
-446 -127 442 0
-446 -46 -1 5 127 0
-446 2 -8 131 0
-446 -2 8 134 133 132 0
-446 -131 441 0
-446 -43 -1 2 131 0
-446 -134 440 0
-446 -47 -2 3 134 0
-446 -133 439 0
-446 -48 -2 4 133 0
-446 -132 438 0
-446 -49 -2 5 132 0
-446 3 -9 136 135 0
-446 -3 9 138 137 0
-446 -136 437 0
-446 -44 -1 3 136 0
-446 -135 436 0
-446 -47 -2 3 135 0
-446 -138 435 0
-446 -50 -3 4 138 0
-446 -137 434 0
-446 -51 -3 5 137 0
-446 4 -10 141 140 139 0
-446 -4 10 142 0
-446 -141 433 0
-446 -45 -1 4 141 0
-446 -140 432 0
-446 -48 -2 4 140 0
-446 -139 431 0
-446 -50 -3 4 139 0
-446 -142 430 0
-446 -52 -4 5 142 0
-446 5 -11 146 145 144 143 0
-446 -5 11 0
-446 -146 429 0
-446 -46 -1 5 146 0
-446 -145 428 0
-446 -49 -2 5 145 0
-446 -144 427 0
-446 -51 -3 5 144 0
-446 -143 426 0
-446 -52 -4 5 143 0
-446 6 -12 0
-446 -6 12 0
-446 424 425 0
-446 422 423 0
-446 420 421 0
-446 418 419 0
-446 416 417 0
-446 414 415 0
-446 412 413 0
-446 410 411 0
-446 408 409 0
-446 406 407 0
-446 395 396 397 398 399 400 401 402 403 404 405 0
-447 0
-448 0
-449 0
-450 0
-451 0
-452 0
-453 0
-454 0
-455 0
-456 0
-445 43 0
-445 1 0
-445 -2 0
-444 44 0
-444 1 0
-444 -3 0
-443 45 0
-443 1 0
-443 -4 0
-442 46 0
-442 1 0
-442 -5 0
-441 43 0
-441 1 0
-441 -2 0
-440 47 0
-440 2 0
-440 -3 0
-439 48 0
-439 2 0
-439 -4 0
-438 49 0
-438 2 0
-438 -5 0
-437 44 0
-437 1 0
-437 -3 0
-436 47 0
-436 2 0
-436 -3 0
-435 50 0
-435 3 0
-435 -4 0
-434 51 0
-434 3 0
-434 -5 0
-433 45 0
-433 1 0
-433 -4 0
-432 48 0
-432 2 0
-432 -4 0
-431 50 0
-431 3 0
-431 -4 0
-430 52 0
-430 4 0
-430 -5 0
-429 46 0
-429 1 0
-429 -5 0
-428 49 0
-428 2 0
-428 -5 0
-427 51 0
-427 3 0
-427 -5 0
-426 52 0
-426 4 0
-426 -5 0
-424 -43 -1 2 0
-425 -7 0
-425 8 0
-422 -44 -1 3 0
-423 -7 0
-423 9 0
-420 -45 -1 4 0
-421 -7 0
-421 10 0
-418 -46 -1 5 0
-419 -7 0
-419 11 0
-416 -47 -2 3 0
-417 -8 0
-417 9 0
-414 -48 -2 4 0
-415 -8 0
-415 10 0
-412 -49 -2 5 0
-413 -8 0
-413 11 0
-410 -50 -3 4 0
-411 -9 0
-411 10 0
-408 -51 -3 5 0
-409 -9 0
-409 11 0
-406 -52 -4 5 0
-407 -10 0
-407 11 0
-395 7 -13 0
-395 -7 13 989 988 987 986 0
-395 -989 394 0
-395 -53 -7 8 989 0
-395 -988 393 0
-395 -54 -7 9 988 0
-395 -987 392 0
-395 -55 -7 10 987 0
-395 -986 391 0
-395 -56 -7 11 986 0
-395 8 -14 990 0
-395 -8 14 993 992 991 0
-395 -990 390 0
-395 -53 -7 8 990 0
-395 -993 389 0
-395 -57 -8 9 993 0
-395 -992 388 0
-395 -58 -8 10 992 0
-395 -991 387 0
-395 -59 -8 11 991 0
-395 9 -15 995 994 0
-395 -9 15 997 996 0
-395 -995 386 0
-395 -54 -7 9 995 0
-395 -994 385 0
-395 -57 -8 9 994 0
-395 -997 384 0
-395 -60 -9 10 997 0
-395 -996 383 0
-395 -61 -9 11 996 0
-395 10 -16 1000 999 998 0
-395 -10 16 1001 0
-395 -1000 382 0
-395 -55 -7 10 1000 0
-395 -999 381 0
-395 -58 -8 10 999 0
-395 -998 380 0
-395 -60 -9 10 998 0
-395 -1001 379 0
-395 -62 -10 11 1001 0
-395 11 -17 1005 1004 1003 1002 0
-395 -11 17 0
-395 -1005 378 0
-395 -56 -7 11 1005 0
-395 -1004 377 0
-395 -59 -8 11 1004 0
-395 -1003 376 0
-395 -61 -9 11 1003 0
-395 -1002 375 0
-395 -62 -10 11 1002 0
-395 12 -18 0
-395 -12 18 0
-395 373 374 0
-395 371 372 0
-395 369 370 0
-395 367 368 0
-395 365 366 0
-395 363 364 0
-395 361 362 0
-395 359 360 0
-395 357 358 0
-395 355 356 0
-395 344 345 346 347 348 349 350 351 352 353 354 0
-396 0
-397 0
-398 0
-399 0
-400 0
-401 0
-402 0
-403 0
-404 0
-405 0
-394 53 0
-394 7 0
-394 -8 0
-393 54 0
-393 7 0
-393 -9 0
-392 55 0
-392 7 0
-392 -10 0
-391 56 0
-391 7 0
-391 -11 0
-390 53 0
-390 7 0
-390 -8 0
-389 57 0
-389 8 0
-389 -9 0
-388 58 0
-388 8 0
-388 -10 0
-387 59 0
-387 8 0
-387 -11 0
-386 54 0
-386 7 0
-386 -9 0
-385 57 0
-385 8 0
-385 -9 0
-384 60 0
-384 9 0
-384 -10 0
-383 61 0
-383 9 0
-383 -11 0
-382 55 0
-382 7 0
-382 -10 0
-381 58 0
-381 8 0
-381 -10 0
-380 60 0
-380 9 0
-380 -10 0
-379 62 0
-379 10 0
-379 -11 0
-378 56 0
-378 7 0
-378 -11 0
-377 59 0
-377 8 0
-377 -11 0
-376 61 0
-376 9 0
-376 -11 0
-375 62 0
-375 10 0
-375 -11 0
-373 -53 -7 8 0
-374 -13 0
-374 14 0
-371 -54 -7 9 0
-372 -13 0
-372 15 0
-369 -55 -7 10 0
-370 -13 0
-370 16 0
-367 -56 -7 11 0
-368 -13 0
-368 17 0
-365 -57 -8 9 0
-366 -14 0
-366 15 0
-363 -58 -8 10 0
-364 -14 0
-364 16 0
-361 -59 -8 11 0
-362 -14 0
-362 17 0
-359 -60 -9 10 0
-360 -15 0
-360 16 0
-357 -61 -9 11 0
-358 -15 0
-358 17 0
-355 -62 -10 11 0
-356 -16 0
-356 17 0
-344 13 -19 0
-344 -13 19 1033 1032 1031 1030 0
-344 -1033 343 0
-344 -63 -13 14 1033 0
-344 -1032 342 0
-344 -64 -13 15 1032 0
-344 -1031 341 0
-344 -65 -13 16 1031 0
-344 -1030 340 0
-344 -66 -13 17 1030 0
-344 14 -20 1034 0
-344 -14 20 1037 1036 1035 0
-344 -1034 339 0
-344 -63 -13 14 1034 0
-344 -1037 338 0
-344 -67 -14 15 1037 0
-344 -1036 337 0
-344 -68 -14 16 1036 0
-344 -1035 336 0
-344 -69 -14 17 1035 0
-344 15 -21 1039 1038 0
-344 -15 21 1041 1040 0
-344 -1039 335 0
-344 -64 -13 15 1039 0
-344 -1038 334 0
-344 -67 -14 15 1038 0
-344 -1041 333 0
-344 -70 -15 16 1041 0
-344 -1040 332 0
-344 -71 -15 17 1040 0
-344 16 -22 1044 1043 1042 0
-344 -16 22 1045 0
-344 -1044 331 0
-344 -65 -13 16 1044 0
-344 -1043 330 0
-344 -68 -14 16 1043 0
-344 -1042 329 0
-344 -70 -15 16 1042 0
-344 -1045 328 0
-344 -72 -16 17 1045 0
-344 17 -23 1049 1048 1047 1046 0
-344 -17 23 0
-344 -1049 327 0
-344 -66 -13 17 1049 0
-344 -1048 326 0
-344 -69 -14 17 1048 0
-344 -1047 325 0
-344 -71 -15 17 1047 0
-344 -1046 324 0
-344 -72 -16 17 1046 0
-344 18 -24 0
-344 -18 24 0
-344 322 323 0
-344 320 321 0
-344 318 319 0
-344 316 317 0
-344 314 315 0
-344 312 313 0
-344 310 311 0
-344 308 309 0
-344 306 307 0
-344 304 305 0
-344 293 294 295 296 297 298 299 300 301 302 303 0
-345 0
-346 0
-347 0
-348 0
-349 0
-350 0
-351 0
-352 0
-353 0
-354 0
-343 63 0
-343 13 0
-343 -14 0
-342 64 0
-342 13 0
-342 -15 0
-341 65 0
-341 13 0
-341 -16 0
-340 66 0
-340 13 0
-340 -17 0
-339 63 0
-339 13 0
-339 -14 0
-338 67 0
-338 14 0
-338 -15 0
-337 68 0
-337 14 0
-337 -16 0
-336 69 0
-336 14 0
-336 -17 0
-335 64 0
-335 13 0
-335 -15 0
-334 67 0
-334 14 0
-334 -15 0
-333 70 0
-333 15 0
-333 -16 0
-332 71 0
-332 15 0
-332 -17 0
-331 65 0
-331 13 0
-331 -16 0
-330 68 0
-330 14 0
-330 -16 0
-329 70 0
-329 15 0
-329 -16 0
-328 72 0
-328 16 0
-328 -17 0
-327 66 0
-327 13 0
-327 -17 0
-326 69 0
-326 14 0
-326 -17 0
-325 71 0
-325 15 0
-325 -17 0
-324 72 0
-324 16 0
-324 -17 0
-322 -63 -13 14 0
-323 -19 0
-323 20 0
-320 -64 -13 15 0
-321 -19 0
-321 21 0
-318 -65 -13 16 0
-319 -19 0
-319 22 0
-316 -66 -13 17 0
-317 -19 0
-317 23 0
-314 -67 -14 15 0
-315 -20 0
-315 21 0
-312 -68 -14 16 0
-313 -20 0
-313 22 0
-310 -69 -14 17 0
-311 -20 0
-311 23 0
-308 -70 -15 16 0
-309 -21 0
-309 22 0
-306 -71 -15 17 0
-307 -21 0
-307 23 0
-304 -72 -16 17 0
-305 -22 0
-305 23 0
-293 19 -25 0
-293 -19 25 1077 1076 1075 1074 0
-293 -1077 292 0
-293 -73 -19 20 1077 0
-293 -1076 291 0
-293 -74 -19 21 1076 0
-293 -1075 290 0
-293 -75 -19 22 1075 0
-293 -1074 289 0
-293 -76 -19 23 1074 0
-293 20 -26 1078 0
-293 -20 26 1081 1080 1079 0
-293 -1078 288 0
-293 -73 -19 20 1078 0
-293 -1081 287 0
-293 -77 -20 21 1081 0
-293 -1080 286 0
-293 -78 -20 22 1080 0
-293 -1079 285 0
-293 -79 -20 23 1079 0
-293 21 -27 1083 1082 0
-293 -21 27 1085 1084 0
-293 -1083 284 0
-293 -74 -19 21 1083 0
-293 -1082 283 0
-293 -77 -20 21 1082 0
-293 -1085 282 0
-293 -80 -21 22 1085 0
-293 -1084 281 0
-293 -81 -21 23 1084 0
-293 22 -28 1088 1087 1086 0
-293 -22 28 1089 0
-293 -1088 280 0
-293 -75 -19 22 1088 0
-293 -1087 279 0
-293 -78 -20 22 1087 0
-293 -1086 278 0
-293 -80 -21 22 1086 0
-293 -1089 277 0
-293 -82 -22 23 1089 0
-293 23 -29 1093 1092 1091 1090 0
-293 -23 29 0
-293 -1093 276 0
-293 -76 -19 23 1093 0
-293 -1092 275 0
-293 -79 -20 23 1092 0
-293 -1091 274 0
-293 -81 -21 23 1091 0
-293 -1090 273 0
-293 -82 -22 23 1090 0
-293 24 -30 0
-293 -24 30 0
-293 271 272 0
-293 269 270 0
-293 267 268 0
-293 265 266 0
-293 263 264 0
-293 261 262 0
-293 259 260 0
-293 257 258 0
-293 255 256 0
-293 253 254 0
-293 242 243 244 245 246 247 248 249 250 251 252 0
-294 0
-295 0
-296 0
-297 0
-298 0
-299 0
-300 0
-301 0
-302 0
-303 0
-292 73 0
-292 19 0
-292 -20 0
-291 74 0
-291 19 0
-291 -21 0
-290 75 0
-290 19 0
-290 -22 0
-289 76 0
-289 19 0
-289 -23 0
-288 73 0
-288 19 0
-288 -20 0
-287 77 0
-287 20 0
-287 -21 0
-286 78 0
-286 20 0
-286 -22 0
-285 79 0
-285 20 0
-285 -23 0
-284 74 0
-284 19 0
-284 -21 0
-283 77 0
-283 20 0
-283 -21 0
-282 80 0
-282 21 0
-282 -22 0
-281 81 0
-281 21 0
-281 -23 0
-280 75 0
-280 19 0
-280 -22 0
-279 78 0
-279 20 0
-279 -22 0
-278 80 0
-278 21 0
-278 -22 0
-277 82 0
-277 22 0
-277 -23 0
-276 76 0
-276 19 0
-276 -23 0
-275 79 0
-275 20 0
-275 -23 0
-274 81 0
-274 21 0
-274 -23 0
-273 82 0
-273 22 0
-273 -23 0
-271 -73 -19 20 0
-272 -25 0
-272 26 0
-269 -74 -19 21 0
-270 -25 0
-270 27 0
-267 -75 -19 22 0
-268 -25 0
-268 28 0
-265 -76 -19 23 0
-266 -25 0
-266 29 0
-263 -77 -20 21 0
-264 -26 0
-264 27 0
-261 -78 -20 22 0
-262 -26 0
-262 28 0
-259 -79 -20 23 0
-260 -26 0
-260 29 0
-257 -80 -21 22 0
-258 -27 0
-258 28 0
-255 -81 -21 23 0
-256 -27 0
-256 29 0
-253 -82 -22 23 0
-254 -28 0
-254 29 0
-242 25 -31 0
-242 -25 31 1121 1120 1119 1118 0
-242 -1121 241 0
-242 -83 -25 26 1121 0
-242 -1120 240 0
-242 -84 -25 27 1120 0
-242 -1119 239 0
-242 -85 -25 28 1119 0
-242 -1118 238 0
-242 -86 -25 29 1118 0
-242 26 -32 1122 0
-242 -26 32 1125 1124 1123 0
-242 -1122 237 0
-242 -83 -25 26 1122 0
-242 -1125 236 0
-242 -87 -26 27 1125 0
-242 -1124 235 0
-242 -88 -26 28 1124 0
-242 -1123 234 0
-242 -89 -26 29 1123 0
-242 27 -33 1127 1126 0
-242 -27 33 1129 1128 0
-242 -1127 233 0
-242 -84 -25 27 1127 0
-242 -1126 232 0
-242 -87 -26 27 1126 0
-242 -1129 231 0
-242 -90 -27 28 1129 0
-242 -1128 230 0
-242 -91 -27 29 1128 0
-242 28 -34 1132 1131 1130 0
-242 -28 34 1133 0
-242 -1132 229 0
-242 -85 -25 28 1132 0
-242 -1131 228 0
-242 -88 -26 28 1131 0
-242 -1130 227 0
-242 -90 -27 28 1130 0
-242 -1133 226 0
-242 -92 -28 29 1133 0
-242 29 -35 1137 1136 1135 1134 0
-242 -29 35 0
-242 -1137 225 0
-242 -86 -25 29 1137 0
-242 -1136 224 0
-242 -89 -26 29 1136 0
-242 -1135 223 0
-242 -91 -27 29 1135 0
-242 -1134 222 0
-242 -92 -28 29 1134 0
-242 30 -36 0
-242 -30 36 0
-242 220 221 0
-242 218 219 0
-242 216 217 0
-242 214 215 0
-242 212 213 0
-242 210 211 0
-242 208 209 0
-242 206 207 0
-242 204 205 0
-242 202 203 0
-242 191 192 193 194 195 196 197 198 199 200 201 0
-243 0
-244 0
-245 0
-246 0
-247 0
-248 0
-249 0
-250 0
-251 0
-252 0
-241 83 0
-241 25 0
-241 -26 0
-240 84 0
-240 25 0
-240 -27 0
-239 85 0
-239 25 0
-239 -28 0
-238 86 0
-238 25 0
-238 -29 0
-237 83 0
-237 25 0
-237 -26 0
-236 87 0
-236 26 0
-236 -27 0
-235 88 0
-235 26 0
-235 -28 0
-234 89 0
-234 26 0
-234 -29 0
-233 84 0
-233 25 0
-233 -27 0
-232 87 0
-232 26 0
-232 -27 0
-231 90 0
-231 27 0
-231 -28 0
-230 91 0
-230 27 0
-230 -29 0
-229 85 0
-229 25 0
-229 -28 0
-228 88 0
-228 26 0
-228 -28 0
-227 90 0
-227 27 0
-227 -28 0
-226 92 0
-226 28 0
-226 -29 0
-225 86 0
-225 25 0
-225 -29 0
-224 89 0
-224 26 0
-224 -29 0
-223 91 0
-223 27 0
-223 -29 0
-222 92 0
-222 28 0
-222 -29 0
-220 -83 -25 26 0
-221 -31 0
-221 32 0
-218 -84 -25 27 0
-219 -31 0
-219 33 0
-216 -85 -25 28 0
-217 -31 0
-217 34 0
-214 -86 -25 29 0
-215 -31 0
-215 35 0
-212 -87 -26 27 0
-213 -32 0
-213 33 0
-210 -88 -26 28 0
-211 -32 0
-211 34 0
-208 -89 -26 29 0
-209 -32 0
-209 35 0
-206 -90 -27 28 0
-207 -33 0
-207 34 0
-204 -91 -27 29 0
-205 -33 0
-205 35 0
-202 -92 -28 29 0
-203 -34 0
-203 35 0
-191 31 -37 0
-191 -31 37 1165 1164 1163 1162 0
-191 -1165 190 0
-191 -93 -31 32 1165 0
-191 -1164 189 0
-191 -94 -31 33 1164 0
-191 -1163 188 0
-191 -95 -31 34 1163 0
-191 -1162 187 0
-191 -96 -31 35 1162 0
-191 32 -38 1166 0
-191 -32 38 1169 1168 1167 0
-191 -1166 186 0
-191 -93 -31 32 1166 0
-191 -1169 185 0
-191 -97 -32 33 1169 0
-191 -1168 184 0
-191 -98 -32 34 1168 0
-191 -1167 183 0
-191 -99 -32 35 1167 0
-191 33 -39 1171 1170 0
-191 -33 39 1173 1172 0
-191 -1171 182 0
-191 -94 -31 33 1171 0
-191 -1170 181 0
-191 -97 -32 33 1170 0
-191 -1173 180 0
-191 -100 -33 34 1173 0
-191 -1172 179 0
-191 -101 -33 35 1172 0
-191 34 -40 1176 1175 1174 0
-191 -34 40 1177 0
-191 -1176 178 0
-191 -95 -31 34 1176 0
-191 -1175 177 0
-191 -98 -32 34 1175 0
-191 -1174 176 0
-191 -100 -33 34 1174 0
-191 -1177 175 0
-191 -102 -34 35 1177 0
-191 35 -41 1181 1180 1179 1178 0
-191 -35 41 0
-191 -1181 174 0
-191 -96 -31 35 1181 0
-191 -1180 173 0
-191 -99 -32 35 1180 0
-191 -1179 172 0
-191 -101 -33 35 1179 0
-191 -1178 171 0
-191 -102 -34 35 1178 0
-191 36 -42 0
-191 -36 42 0
-191 169 170 0
-191 167 168 0
-191 165 166 0
-191 163 164 0
-191 161 162 0
-191 159 160 0
-191 157 158 0
-191 155 156 0
-191 153 154 0
-191 151 152 0
-191 147 148 149 150 0
-192 0
-193 0
-194 0
-195 0
-196 0
-197 0
-198 0
-199 0
-200 0
-201 0
-190 93 0
-190 31 0
-190 -32 0
-189 94 0
-189 31 0
-189 -33 0
-188 95 0
-188 31 0
-188 -34 0
-187 96 0
-187 31 0
-187 -35 0
-186 93 0
-186 31 0
-186 -32 0
-185 97 0
-185 32 0
-185 -33 0
-184 98 0
-184 32 0
-184 -34 0
-183 99 0
-183 32 0
-183 -35 0
-182 94 0
-182 31 0
-182 -33 0
-181 97 0
-181 32 0
-181 -33 0
-180 100 0
-180 33 0
-180 -34 0
-179 101 0
-179 33 0
-179 -35 0
-178 95 0
-178 31 0
-178 -34 0
-177 98 0
-177 32 0
-177 -34 0
-176 100 0
-176 33 0
-176 -34 0
-175 102 0
-175 34 0
-175 -35 0
-174 96 0
-174 31 0
-174 -35 0
-173 99 0
-173 32 0
-173 -35 0
-172 101 0
-172 33 0
-172 -35 0
-171 102 0
-171 34 0
-171 -35 0
-169 -93 -31 32 0
-170 -37 0
-170 38 0
-167 -94 -31 33 0
-168 -37 0
-168 39 0
-165 -95 -31 34 0
-166 -37 0
-166 40 0
-163 -96 -31 35 0
-164 -37 0
-164 41 0
-161 -97 -32 33 0
-162 -38 0
-162 39 0
-159 -98 -32 34 0
-160 -38 0
-160 40 0
-157 -99 -32 35 0
-158 -38 0
-158 41 0
-155 -100 -33 34 0
-156 -39 0
-156 40 0
-153 -101 -33 35 0
-154 -39 0
-154 41 0
-151 -102 -34 35 0
-152 -40 0
-152 41 0
-147 37 0
-147 -38 0
-148 38 0
-148 -39 0
-149 39 0
-149 -40 0
-150 40 0
-150 -41 0
